\ENCODING=ISO-8859-1
\Problem name: ilog.cplex

Minimize
 obj1: 94927 x1 + 98062 x2 + 107791 x3 + 97125 x4 + 91496 x5 + 101051 x6
       + 90589 x7 + 95226 x8 + 93256 x9 + 94791 x10 + 92232 x11 + 100074 x12
       + 97000 x13 + 93767 x14 + 96209 x15 + 108375 x16 + 97842 x17 + 95427 x18
       + 104356 x19 + 101173 x20 + 93369 x21 + 91328 x22 + 109251 x23
       + 92369 x24 + 105393 x25 + 104074 x26 + 94427 x27 + 100383 x28
       + 97942 x29 + 109077 x30 + 107530 x31 + 108870 x32 + 104503 x33
       + 101596 x34 + 91218 x35 + 101644 x36 + 107540 x37 + 91573 x38
       + 101973 x39 + 106834 x40 + 98971 x41 + 91450 x42 + 97928 x43
       + 105779 x44 + 91554 x45 + 105444 x46 + 93397 x47 + 93289 x48
       + 108015 x49 + 92707 x50 + 101331 x51 + 102192 x52 + 100891 x53
       + 95337 x54 + 95323 x55 + 108132 x56 + 103682 x57 + 91954 x58
       + 102513 x59 + 96587 x60 + 91074 x61 + 103989 x62 + 97745 x63
       + 104420 x64 + 101761 x65 + 90926 x66 + 102770 x67 + 90223 x68
       + 96625 x69 + 98993 x70 + 91937 x71 + 105281 x72 + 108694 x73
       + 106470 x74 + 101078 x75 + 104721 x76 + 92512 x77 + 104672 x78
       + 105891 x79 + 98908 x80 + 97697 x81 + 96630 x82 + 105714 x83
       + 97960 x84 + 108794 x85 + 108637 x86 + 98710 x87 + 100743 x88
       + 101565 x89 + 98582 x90 + 105334 x91 + 103757 x92 + 104437 x93
       + 109398 x94 + 108336 x95 + 95057 x96 + 103067 x97 + 95976 x98
       + 109626 x99 + 93661 x100 + 95879 x101 + 98866 x102 + 94678 x103
       + 107089 x104 + 96559 x105 + 99135 x106 + 101375 x107 + 104534 x108
       + 105460 x109 + 108303 x110 + 96401 x111 + 92543 x112 + 96802 x113
       + 109339 x114 + 97198 x115 + 104403 x116 + 93481 x117 + 103352 x118
       + 104649 x119 + 101925 x120 + 96545 x121 + 106457 x122 + 100792 x123
       + 102921 x124 + 105206 x125 + 101099 x126 + 102449 x127 + 96966 x128
       + 93018 x129 + 101088 x130 + 102447 x131 + 106333 x132 + 91791 x133
       + 105046 x134 + 106308 x135 + 107317 x136 + 106414 x137 + 99129 x138
       + 104260 x139 + 106082 x140 + 100936 x141 + 106593 x142 + 105858 x143
       + 102704 x144 + 99117 x145 + 109143 x146 + 107727 x147 + 97268 x148
       + 91102 x149 + 103010 x150 + 101272 x151 + 100579 x152 + 90366 x153
       + 97480 x154 + 93237 x155 + 94468 x156 + 96664 x157 + 108174 x158
       + 101500 x159 + 104808 x160 + 101302 x161 + 102928 x162 + 97829 x163
       + 108866 x164 + 91482 x165 + 100907 x166 + 90118 x167 + 92835 x168
       + 109961 x169 + 92070 x170 + 94388 x171 + 109964 x172 + 109606 x173
       + 104702 x174 + 98200 x175 + 103789 x176 + 102196 x177 + 91763 x178
       + 104797 x179 + 98370 x180 + 105044 x181 + 96961 x182 + 100933 x183
       + 96820 x184 + 95424 x185 + 106136 x186 + 95591 x187 + 104442 x188
       + 109843 x189 + 99899 x190 + 91612 x191 + 103437 x192 + 92886 x193
       + 99408 x194 + 97799 x195 + 92409 x196 + 108642 x197 + 98759 x198
       + 105146 x199 + 105786 x200 + 105807 x201 + 103892 x202 + 96982 x203
       + 104898 x204 + 92853 x205 + 94438 x206 + 101884 x207 + 93909 x208
       + 108682 x209 + 109301 x210 + 94032 x211 + 91674 x212 + 91524 x213
       + 100324 x214 + 93195 x215 + 104905 x216 + 101997 x217 + 94089 x218
       + 96586 x219 + 98706 x220 + 94465 x221 + 94454 x222 + 108918 x223
       + 108676 x224 + 99720 x225 + 105647 x226 + 98786 x227 + 101453 x228
       + 91772 x229 + 91777 x230 + 102252 x231 + 90460 x232 + 94031 x233
       + 103144 x234 + 92254 x235 + 96041 x236 + 98348 x237 + 94936 x238
       + 96010 x239 + 92125 x240 + 104100 x241 + 99697 x242 + 91582 x243
       + 105177 x244 + 93951 x245 + 91352 x246 + 109547 x247 + 105445 x248
       + 107898 x249 + 95657 x250 + 99604 x251 + 99078 x252 + 95457 x253
       + 101488 x254 + 90598 x255 + 92882 x256 + 94235 x257 + 105229 x258
       + 95180 x259 + 109612 x260 + 105241 x261 + 95255 x262 + 106589 x263
       + 93923 x264 + 101866 x265 + 96708 x266 + 90658 x267 + 101678 x268
       + 98449 x269 + 101516 x270 + 100320 x271 + 99480 x272 + 94848 x273
       + 98914 x274 + 90430 x275 + 101071 x276 + 100895 x277 + 92975 x278
       + 106675 x279 + 91983 x280 + 106982 x281 + 97074 x282 + 105004 x283
       + 104805 x284 + 107562 x285 + 96478 x286 + 101305 x287 + 104009 x288
       + 95420 x289 + 107172 x290 + 95006 x291 + 101481 x292 + 106329 x293
       + 91504 x294 + 94807 x295 + 91740 x296 + 106067 x297 + 99428 x298
       + 99926 x299 + 109275 x300 + 109528 x301 + 97081 x302 + 90078 x303
       + 91700 x304 + 99747 x305 + 91252 x306 + 102054 x307 + 107352 x308
       + 96255 x309 + 104304 x310 + 103406 x311 + 98215 x312 + 100675 x313
       + 106982 x314 + 96711 x315 + 98741 x316 + 109186 x317 + 97438 x318
       + 90991 x319 + 106791 x320 + 96118 x321 + 109774 x322 + 92629 x323
       + 94440 x324 + 106040 x325 + 100807 x326 + 100111 x327 + 102748 x328
       + 106906 x329 + 96429 x330 + 107794 x331 + 108600 x332 + 100959 x333
       + 97530 x334 + 108261 x335 + 103108 x336 + 99765 x337 + 94721 x338
       + 102873 x339 + 93188 x340 + 105089 x341 + 100925 x342 + 105739 x343
       + 90527 x344 + 98287 x345 + 101416 x346 + 97636 x347 + 105502 x348
       + 107477 x349 + 101986 x350 + 107658 x351 + 107742 x352 + 107896 x353
       + 96983 x354 + 106748 x355 + 106521 x356 + 96156 x357 + 100255 x358
       + 108025 x359 + 96350 x360 + 97312 x361 + 90916 x362 + 102380 x363
       + 104736 x364 + 92981 x365 + 98645 x366 + 94609 x367 + 100016 x368
       + 107177 x369 + 101083 x370 + 95821 x371 + 104999 x372 + 94792 x373
       + 108626 x374 + 102424 x375 + 93311 x376 + 109262 x377 + 92978 x378
       + 93800 x379 + 109521 x380 + 94790 x381 + 101069 x382 + 97487 x383
       + 101631 x384 + 108058 x385 + 98789 x386 + 98059 x387 + 97632 x388
       + 94530 x389 + 97448 x390 + 103894 x391 + 96647 x392 + 105274 x393
       + 109945 x394 + 94612 x395 + 99530 x396 + 101615 x397 + 103345 x398
       + 91220 x399 + 93838 x400 + 93723 x401 + 108254 x402 + 109425 x403
       + 108564 x404 + 96573 x405 + 91231 x406 + 92808 x407 + 99427 x408
       + 95112 x409 + 100739 x410 + 98077 x411 + 96585 x412 + 96194 x413
       + 97989 x414 + 98979 x415 + 92445 x416 + 105681 x417 + 94935 x418
       + 98919 x419 + 93839 x420 + 102541 x421 + 90200 x422 + 102483 x423
       + 95277 x424 + 104727 x425 + 97852 x426 + 101375 x427 + 98747 x428
       + 104385 x429 + 97315 x430 + 91957 x431 + 93344 x432 + 100608 x433
       + 100383 x434 + 97532 x435 + 93542 x436 + 104220 x437 + 99613 x438
       + 90095 x439 + 90989 x440 + 90942 x441 + 91280 x442 + 93469 x443
       + 101491 x444 + 96862 x445 + 95643 x446 + 102609 x447 + 106161 x448
       + 103216 x449 + 107453 x450 + 100397 x451 + 92346 x452 + 109764 x453
       + 92766 x454 + 100665 x455 + 96913 x456 + 107171 x457 + 100326 x458
       + 96795 x459 + 109262 x460 + 93487 x461 + 100068 x462 + 105704 x463
       + 106270 x464 + 99353 x465 + 107180 x466 + 108060 x467 + 91963 x468
       + 94958 x469 + 94304 x470 + 100105 x471 + 102360 x472 + 92350 x473
       + 104022 x474 + 103568 x475 + 101515 x476 + 94035 x477 + 95151 x478
       + 90511 x479 + 92132 x480 + 101270 x481 + 91330 x482 + 95728 x483
       + 93217 x484 + 99069 x485 + 109745 x486 + 105738 x487 + 91917 x488
       + 109152 x489 + 92876 x490 + 90505 x491 + 97054 x492 + 106976 x493
       + 106778 x494 + 101631 x495 + 107799 x496 + 94429 x497 + 105691 x498
       + 99133 x499 + 162874 x500 + 403158 x501 + 405771 x502 + 405618 x503
       + 401568 x504 + 395353 x505 + 406229 x506 + 401781 x507 + 369191 x508
       + 420746 x509 + 377409 x510 + 377380 x511 + 383740 x512 + 439412 x513
       + 373068 x514 + 395248 x515 + 417726 x516 + 372944 x517 + 429376 x518
       + 390370 x519 + 433242 x520 + 388562 x521 + 407080 x522 + 408184 x523
       + 409571 x524 + 385935 x525 + 412980 x526 + 439733 x527 + 428608 x528
       + 428923 x529 + 360226 x530 + 412172 x531 + 383545 x532 + 438911 x533
       + 405736 x534 + 401347 x535 + 398896 x536 + 408362 x537 + 369425 x538
       + 408839 x539 + 439984 x540 + 422645 x541 + 433699 x542 + 409101 x543
       + 367599 x544 + 415187 x545 + 403046 x546 + 422994 x547 + 418624 x548
       + 425411 x549 + 145345 x550
Subject To
 c1:   - x2 - x29 - x35 - x36 + x37 - x44 - x45 + x50  = -1
 c2:   - x52 - x79 - x85 - x86 + x87 - x94 - x95 + x100  = 0
 c3:   - x102 - x129 - x135 - x136 + x137 - x144 - x145 + x150  = 0
 c4:   - x152 - x179 - x185 - x186 + x187 - x194 - x195 + x200  = 0
 c5:   - x202 - x229 - x235 - x236 + x237 - x244 - x245 + x250  = 0
 c6:   - x252 - x279 - x285 - x286 + x287 - x294 - x295 + x300  = 0
 c7:   - x302 - x329 - x335 - x336 + x337 - x344 - x345 + x350  = 0
 c8:   - x352 - x379 - x385 - x386 + x387 - x394 - x395 + x400  = 0
 c9:   - x402 - x429 - x435 - x436 + x437 - x444 - x445 + x450  = 0
 c10:  - x452 - x479 - x485 - x486 + x487 - x494 - x495 + x500  = 0
 c11:  - x1 + x31 + x33 + x36 + x39 - x49  = 0
 c12:  - x51 + x81 + x83 + x86 + x89 - x99  = 0
 c13:  - x101 + x131 + x133 + x136 + x139 - x149  = 0
 c14:  - x151 + x181 + x183 + x186 + x189 - x199  = -1
 c15:  - x201 + x231 + x233 + x236 + x239 - x249  = 0
 c16:  - x251 + x281 + x283 + x286 + x289 - x299  = 0
 c17:  - x301 + x331 + x333 + x336 + x339 - x349  = 0
 c18:  - x351 + x381 + x383 + x386 + x389 - x399  = 0
 c19:  - x401 + x431 + x433 + x436 + x439 - x449  = 0
 c20:  - x451 + x481 + x483 + x486 + x489 - x499  = 0
 c21:  - x6 + x16 - x17 - x18 + x38 - x41 + x42  = 0
 c22:  - x56 + x66 - x67 - x68 + x88 - x91 + x92  = 0
 c23:  - x106 + x116 - x117 - x118 + x138 - x141 + x142  = 0
 c24:  - x156 + x166 - x167 - x168 + x188 - x191 + x192  = 1
 c25:  - x206 + x216 - x217 - x218 + x238 - x241 + x242  = 0
 c26:  - x256 + x266 - x267 - x268 + x288 - x291 + x292  = 0
 c27:  - x306 + x316 - x317 - x318 + x338 - x341 + x342  = 0
 c28:  - x356 + x366 - x367 - x368 + x388 - x391 + x392  = -1
 c29:  - x406 + x416 - x417 - x418 + x438 - x441 + x442  = 0
 c30:  - x456 + x466 - x467 - x468 + x488 - x491 + x492  = 1
 c31:  x2 + x5 - x11 - x24 + x27 - x28 - x32  = 0
 c32:  x52 + x55 - x61 - x74 + x77 - x78 - x82  = 0
 c33:  x102 + x105 - x111 - x124 + x127 - x128 - x132  = 0
 c34:  x152 + x155 - x161 - x174 + x177 - x178 - x182  = 0
 c35:  x202 + x205 - x211 - x224 + x227 - x228 - x232  = 0
 c36:  x252 + x255 - x261 - x274 + x277 - x278 - x282  = 0
 c37:  x302 + x305 - x311 - x324 + x327 - x328 - x332  = 0
 c38:  x352 + x355 - x361 - x374 + x377 - x378 - x382  = 0
 c39:  x402 + x405 - x411 - x424 + x427 - x428 - x432  = 0
 c40:  x452 + x455 - x461 - x474 + x477 - x478 - x482  = 0
 c41:  - x9 - x16 + x17 + x28 + x35 - x47  = 0
 c42:  - x59 - x66 + x67 + x78 + x85 - x97  = 0
 c43:  - x109 - x116 + x117 + x128 + x135 - x147  = 0
 c44:  - x159 - x166 + x167 + x178 + x185 - x197  = 0
 c45:  - x209 - x216 + x217 + x228 + x235 - x247  = 0
 c46:  - x259 - x266 + x267 + x278 + x285 - x297  = 1
 c47:  - x309 - x316 + x317 + x328 + x335 - x347  = -1
 c48:  - x359 - x366 + x367 + x378 + x385 - x397  = 0
 c49:  - x409 - x416 + x417 + x428 + x435 - x447  = 0
 c50:  - x459 - x466 + x467 + x478 + x485 - x497  = 0
 c51:  x7 - x8 - x12 - x26 + x32 + x48 + x49  = 0
 c52:  x57 - x58 - x62 - x76 + x82 + x98 + x99  = 1
 c53:  x107 - x108 - x112 - x126 + x132 + x148 + x149  = -1
 c54:  x157 - x158 - x162 - x176 + x182 + x198 + x199  = 0
 c55:  x207 - x208 - x212 - x226 + x232 + x248 + x249  = -1
 c56:  x257 - x258 - x262 - x276 + x282 + x298 + x299  = -1
 c57:  x307 - x308 - x312 - x326 + x332 + x348 + x349  = 0
 c58:  x357 - x358 - x362 - x376 + x382 + x398 + x399  = 1
 c59:  x407 - x408 - x412 - x426 + x432 + x448 + x449  = 0
 c60:  x457 - x458 - x462 - x476 + x482 + x498 + x499  = 0
 c61:  x3 - x10 + x21 - x50  = 0
 c62:  x53 - x60 + x71 - x100  = 0
 c63:  x103 - x110 + x121 - x150  = 0
 c64:  x153 - x160 + x171 - x200  = 0
 c65:  x203 - x210 + x221 - x250  = 0
 c66:  x253 - x260 + x271 - x300  = 0
 c67:  x303 - x310 + x321 - x350  = 0
 c68:  x353 - x360 + x371 - x400  = 0
 c69:  x403 - x410 + x421 - x450  = 0
 c70:  x453 - x460 + x471 - x500  = 0
 c71:  x20 + x23 + x41 - x43  = 0
 c72:  x70 + x73 + x91 - x93  = 0
 c73:  x120 + x123 + x141 - x143  = 0
 c74:  x170 + x173 + x191 - x193  = 0
 c75:  x220 + x223 + x241 - x243  = 0
 c76:  x270 + x273 + x291 - x293  = 0
 c77:  x320 + x323 + x341 - x343  = 0
 c78:  x370 + x373 + x391 - x393  = 0
 c79:  x420 + x423 + x441 - x443  = 1
 c80:  x470 + x473 + x491 - x493  = 0
 c81:  x6 + x9 + x14 + x15 + x19 - x21 - x23 - x30 - x34  = 0
 c82:  x56 + x59 + x64 + x65 + x69 - x71 - x73 - x80 - x84  = 0
 c83:  x106 + x109 + x114 + x115 + x119 - x121 - x123 - x130 - x134  = 0
 c84:  x156 + x159 + x164 + x165 + x169 - x171 - x173 - x180 - x184  = 0
 c85:  x206 + x209 + x214 + x215 + x219 - x221 - x223 - x230 - x234  = 0
 c86:  x256 + x259 + x264 + x265 + x269 - x271 - x273 - x280 - x284  = 0
 c87:  x306 + x309 + x314 + x315 + x319 - x321 - x323 - x330 - x334  = 0
 c88:  x356 + x359 + x364 + x365 + x369 - x371 - x373 - x380 - x384  = 0
 c89:  x406 + x409 + x414 + x415 + x419 - x421 - x423 - x430 - x434  = -1
 c90:  x456 + x459 + x464 + x465 + x469 - x471 - x473 - x480 - x484  = 0
 c91:  - x3 + x11 + x13 + x44 + x46  = 1
 c92:  - x53 + x61 + x63 + x94 + x96  = 0
 c93:  - x103 + x111 + x113 + x144 + x146  = 0
 c94:  - x153 + x161 + x163 + x194 + x196  = 0
 c95:  - x203 + x211 + x213 + x244 + x246  = 0
 c96:  - x253 + x261 + x263 + x294 + x296  = 0
 c97:  - x303 + x311 + x313 + x344 + x346  = 0
 c98:  - x353 + x361 + x363 + x394 + x396  = 0
 c99:  - x403 + x411 + x413 + x444 + x446  = 0
 c100: - x453 + x461 + x463 + x494 + x496  = 0
 c101: - x20 + x22 + x25 - x33 - x38  = 0
 c102: - x70 + x72 + x75 - x83 - x88  = 0
 c103: - x120 + x122 + x125 - x133 - x138  = 0
 c104: - x170 + x172 + x175 - x183 - x188  = 0
 c105: - x220 + x222 + x225 - x233 - x238  = 0
 c106: - x270 + x272 + x275 - x283 - x288  = 0
 c107: - x320 + x322 + x325 - x333 - x338  = 0
 c108: - x370 + x372 + x375 - x383 - x388  = 0
 c109: - x420 + x422 + x425 - x433 - x438  = 0
 c110: - x470 + x472 + x475 - x483 - x488  = 0
 c111: - x7 - x19 - x22 + x26 + x30 - x31 - x37 + x45  = 0
 c112: - x57 - x69 - x72 + x76 + x80 - x81 - x87 + x95  = 0
 c113: - x107 - x119 - x122 + x126 + x130 - x131 - x137 + x145  = 0
 c114: - x157 - x169 - x172 + x176 + x180 - x181 - x187 + x195  = 0
 c115: - x207 - x219 - x222 + x226 + x230 - x231 - x237 + x245  = 1
 c116: - x257 - x269 - x272 + x276 + x280 - x281 - x287 + x295  = 0
 c117: - x307 - x319 - x322 + x326 + x330 - x331 - x337 + x345  = 0
 c118: - x357 - x369 - x372 + x376 + x380 - x381 - x387 + x395  = 0
 c119: - x407 - x419 - x422 + x426 + x430 - x431 - x437 + x445  = 0
 c120: - x457 - x469 - x472 + x476 + x480 - x481 - x487 + x495  = 0
 c121: x4 + x10 + x12 - x14 + x29 - x42 + x43 - x46  = 0
 c122: x54 + x60 + x62 - x64 + x79 - x92 + x93 - x96  = -1
 c123: x104 + x110 + x112 - x114 + x129 - x142 + x143 - x146  = 0
 c124: x154 + x160 + x162 - x164 + x179 - x192 + x193 - x196  = 0
 c125: x204 + x210 + x212 - x214 + x229 - x242 + x243 - x246  = 0
 c126: x254 + x260 + x262 - x264 + x279 - x292 + x293 - x296  = 0
 c127: x304 + x310 + x312 - x314 + x329 - x342 + x343 - x346  = 0
 c128: x354 + x360 + x362 - x364 + x379 - x392 + x393 - x396  = 0
 c129: x404 + x410 + x412 - x414 + x429 - x442 + x443 - x446  = 0
 c130: x454 + x460 + x462 - x464 + x479 - x492 + x493 - x496  = -1
 c131: - x5 + x8 + x24 - x25 + x34 + x40 + x47  = 0
 c132: - x55 + x58 + x74 - x75 + x84 + x90 + x97  = 0
 c133: - x105 + x108 + x124 - x125 + x134 + x140 + x147  = 0
 c134: - x155 + x158 + x174 - x175 + x184 + x190 + x197  = 0
 c135: - x205 + x208 + x224 - x225 + x234 + x240 + x247  = 0
 c136: - x255 + x258 + x274 - x275 + x284 + x290 + x297  = 0
 c137: - x305 + x308 + x324 - x325 + x334 + x340 + x347  = 1
 c138: - x355 + x358 + x374 - x375 + x384 + x390 + x397  = 0
 c139: - x405 + x408 + x424 - x425 + x434 + x440 + x447  = 0
 c140: - x455 + x458 + x474 - x475 + x484 + x490 + x497  = 0
 c141: x1 - x4 - x13 - x15 + x18 - x27 - x39 - x40 - x48  = 0
 c142: x51 - x54 - x63 - x65 + x68 - x77 - x89 - x90 - x98  = 0
 c143: x101 - x104 - x113 - x115 + x118 - x127 - x139 - x140 - x148  = 1
 c144: x151 - x154 - x163 - x165 + x168 - x177 - x189 - x190 - x198  = 0
 c145: x201 - x204 - x213 - x215 + x218 - x227 - x239 - x240 - x248  = 0
 c146: x251 - x254 - x263 - x265 + x268 - x277 - x289 - x290 - x298  = 0
 c147: x301 - x304 - x313 - x315 + x318 - x327 - x339 - x340 - x348  = 0
 c148: x351 - x354 - x363 - x365 + x368 - x377 - x389 - x390 - x398  = 0
 c149: x401 - x404 - x413 - x415 + x418 - x427 - x439 - x440 - x448  = 0
 c150: x451 - x454 - x463 - x465 + x468 - x477 - x489 - x490 - x498  = 0
 c151: 4 x1 + 4 x51 + 4 x101 + 4 x151 + 4 x201 + 4 x251 + 4 x301 + 4 x351
       + 4 x401 + 4 x451 - 22 x501 <= 0
 c152: 4 x2 + 4 x52 + 4 x102 + 4 x152 + 4 x202 + 4 x252 + 4 x302 + 4 x352
       + 4 x402 + 4 x452 - 21 x502 <= 0
 c153: 4 x3 + 4 x53 + 4 x103 + 4 x153 + 4 x203 + 4 x253 + 4 x303 + 4 x353
       + 4 x403 + 4 x453 - 21 x503 <= 0
 c154: 4 x4 + 4 x54 + 4 x104 + 4 x154 + 4 x204 + 4 x254 + 4 x304 + 4 x354
       + 4 x404 + 4 x454 - 20 x504 <= 0
 c155: 4 x5 + 4 x55 + 4 x105 + 4 x155 + 4 x205 + 4 x255 + 4 x305 + 4 x355
       + 4 x405 + 4 x455 - 19 x505 <= 0
 c156: 4 x6 + 4 x56 + 4 x106 + 4 x156 + 4 x206 + 4 x256 + 4 x306 + 4 x356
       + 4 x406 + 4 x456 - 20 x506 <= 0
 c157: 4 x7 + 4 x57 + 4 x107 + 4 x157 + 4 x207 + 4 x257 + 4 x307 + 4 x357
       + 4 x407 + 4 x457 - 21 x507 <= 0
 c158: 4 x8 + 4 x58 + 4 x108 + 4 x158 + 4 x208 + 4 x258 + 4 x308 + 4 x358
       + 4 x408 + 4 x458 - 19 x508 <= 0
 c159: 4 x9 + 4 x59 + 4 x109 + 4 x159 + 4 x209 + 4 x259 + 4 x309 + 4 x359
       + 4 x409 + 4 x459 - 21 x509 <= 0
 c160: 4 x10 + 4 x60 + 4 x110 + 4 x160 + 4 x210 + 4 x260 + 4 x310 + 4 x360
       + 4 x410 + 4 x460 - 21 x510 <= 0
 c161: 4 x11 + 4 x61 + 4 x111 + 4 x161 + 4 x211 + 4 x261 + 4 x311 + 4 x361
       + 4 x411 + 4 x461 - 20 x511 <= 0
 c162: 4 x12 + 4 x62 + 4 x112 + 4 x162 + 4 x212 + 4 x262 + 4 x312 + 4 x362
       + 4 x412 + 4 x462 - 19 x512 <= 0
 c163: 4 x13 + 4 x63 + 4 x113 + 4 x163 + 4 x213 + 4 x263 + 4 x313 + 4 x363
       + 4 x413 + 4 x463 - 21 x513 <= 0
 c164: 4 x14 + 4 x64 + 4 x114 + 4 x164 + 4 x214 + 4 x264 + 4 x314 + 4 x364
       + 4 x414 + 4 x464 - 21 x514 <= 0
 c165: 4 x15 + 4 x65 + 4 x115 + 4 x165 + 4 x215 + 4 x265 + 4 x315 + 4 x365
       + 4 x415 + 4 x465 - 22 x515 <= 0
 c166: 4 x16 + 4 x66 + 4 x116 + 4 x166 + 4 x216 + 4 x266 + 4 x316 + 4 x366
       + 4 x416 + 4 x466 - 19 x516 <= 0
 c167: 4 x17 + 4 x67 + 4 x117 + 4 x167 + 4 x217 + 4 x267 + 4 x317 + 4 x367
       + 4 x417 + 4 x467 - 19 x517 <= 0
 c168: 4 x18 + 4 x68 + 4 x118 + 4 x168 + 4 x218 + 4 x268 + 4 x318 + 4 x368
       + 4 x418 + 4 x468 - 21 x518 <= 0
 c169: 4 x19 + 4 x69 + 4 x119 + 4 x169 + 4 x219 + 4 x269 + 4 x319 + 4 x369
       + 4 x419 + 4 x469 - 22 x519 <= 0
 c170: 4 x20 + 4 x70 + 4 x120 + 4 x170 + 4 x220 + 4 x270 + 4 x320 + 4 x370
       + 4 x420 + 4 x470 - 22 x520 <= 0
 c171: 4 x21 + 4 x71 + 4 x121 + 4 x171 + 4 x221 + 4 x271 + 4 x321 + 4 x371
       + 4 x421 + 4 x471 - 21 x521 <= 0
 c172: 4 x22 + 4 x72 + 4 x122 + 4 x172 + 4 x222 + 4 x272 + 4 x322 + 4 x372
       + 4 x422 + 4 x472 - 20 x522 <= 0
 c173: 4 x23 + 4 x73 + 4 x123 + 4 x173 + 4 x223 + 4 x273 + 4 x323 + 4 x373
       + 4 x423 + 4 x473 - 19 x523 <= 0
 c174: 4 x24 + 4 x74 + 4 x124 + 4 x174 + 4 x224 + 4 x274 + 4 x324 + 4 x374
       + 4 x424 + 4 x474 - 21 x524 <= 0
 c175: 4 x25 + 4 x75 + 4 x125 + 4 x175 + 4 x225 + 4 x275 + 4 x325 + 4 x375
       + 4 x425 + 4 x475 - 22 x525 <= 0
 c176: 4 x26 + 4 x76 + 4 x126 + 4 x176 + 4 x226 + 4 x276 + 4 x326 + 4 x376
       + 4 x426 + 4 x476 - 20 x526 <= 0
 c177: 4 x27 + 4 x77 + 4 x127 + 4 x177 + 4 x227 + 4 x277 + 4 x327 + 4 x377
       + 4 x427 + 4 x477 - 20 x527 <= 0
 c178: 4 x28 + 4 x78 + 4 x128 + 4 x178 + 4 x228 + 4 x278 + 4 x328 + 4 x378
       + 4 x428 + 4 x478 - 18 x528 <= 0
 c179: 4 x29 + 4 x79 + 4 x129 + 4 x179 + 4 x229 + 4 x279 + 4 x329 + 4 x379
       + 4 x429 + 4 x479 - 21 x529 <= 0
 c180: 4 x30 + 4 x80 + 4 x130 + 4 x180 + 4 x230 + 4 x280 + 4 x330 + 4 x380
       + 4 x430 + 4 x480 - 21 x530 <= 0
 c181: 4 x31 + 4 x81 + 4 x131 + 4 x181 + 4 x231 + 4 x281 + 4 x331 + 4 x381
       + 4 x431 + 4 x481 - 18 x531 <= 0
 c182: 4 x32 + 4 x82 + 4 x132 + 4 x182 + 4 x232 + 4 x282 + 4 x332 + 4 x382
       + 4 x432 + 4 x482 - 20 x532 <= 0
 c183: 4 x33 + 4 x83 + 4 x133 + 4 x183 + 4 x233 + 4 x283 + 4 x333 + 4 x383
       + 4 x433 + 4 x483 - 19 x533 <= 0
 c184: 4 x34 + 4 x84 + 4 x134 + 4 x184 + 4 x234 + 4 x284 + 4 x334 + 4 x384
       + 4 x434 + 4 x484 - 19 x534 <= 0
 c185: 4 x35 + 4 x85 + 4 x135 + 4 x185 + 4 x235 + 4 x285 + 4 x335 + 4 x385
       + 4 x435 + 4 x485 - 19 x535 <= 0
 c186: 4 x36 + 4 x86 + 4 x136 + 4 x186 + 4 x236 + 4 x286 + 4 x336 + 4 x386
       + 4 x436 + 4 x486 - 21 x536 <= 0
 c187: 4 x37 + 4 x87 + 4 x137 + 4 x187 + 4 x237 + 4 x287 + 4 x337 + 4 x387
       + 4 x437 + 4 x487 - 21 x537 <= 0
 c188: 4 x38 + 4 x88 + 4 x138 + 4 x188 + 4 x238 + 4 x288 + 4 x338 + 4 x388
       + 4 x438 + 4 x488 - 21 x538 <= 0
 c189: 4 x39 + 4 x89 + 4 x139 + 4 x189 + 4 x239 + 4 x289 + 4 x339 + 4 x389
       + 4 x439 + 4 x489 - 19 x539 <= 0
 c190: 4 x40 + 4 x90 + 4 x140 + 4 x190 + 4 x240 + 4 x290 + 4 x340 + 4 x390
       + 4 x440 + 4 x490 - 21 x540 <= 0
 c191: 4 x41 + 4 x91 + 4 x141 + 4 x191 + 4 x241 + 4 x291 + 4 x341 + 4 x391
       + 4 x441 + 4 x491 - 20 x541 <= 0
 c192: 4 x42 + 4 x92 + 4 x142 + 4 x192 + 4 x242 + 4 x292 + 4 x342 + 4 x392
       + 4 x442 + 4 x492 - 21 x542 <= 0
 c193: 4 x43 + 4 x93 + 4 x143 + 4 x193 + 4 x243 + 4 x293 + 4 x343 + 4 x393
       + 4 x443 + 4 x493 - 21 x543 <= 0
 c194: 4 x44 + 4 x94 + 4 x144 + 4 x194 + 4 x244 + 4 x294 + 4 x344 + 4 x394
       + 4 x444 + 4 x494 - 19 x544 <= 0
 c195: 4 x45 + 4 x95 + 4 x145 + 4 x195 + 4 x245 + 4 x295 + 4 x345 + 4 x395
       + 4 x445 + 4 x495 - 19 x545 <= 0
 c196: 4 x46 + 4 x96 + 4 x146 + 4 x196 + 4 x246 + 4 x296 + 4 x346 + 4 x396
       + 4 x446 + 4 x496 - 20 x546 <= 0
 c197: 4 x47 + 4 x97 + 4 x147 + 4 x197 + 4 x247 + 4 x297 + 4 x347 + 4 x397
       + 4 x447 + 4 x497 - 21 x547 <= 0
 c198: 4 x48 + 4 x98 + 4 x148 + 4 x198 + 4 x248 + 4 x298 + 4 x348 + 4 x398
       + 4 x448 + 4 x498 - 22 x548 <= 0
 c199: 4 x49 + 4 x99 + 4 x149 + 4 x199 + 4 x249 + 4 x299 + 4 x349 + 4 x399
       + 4 x449 + 4 x499 - 20 x549 <= 0
 c200: 4 x50 + 4 x100 + 4 x150 + 4 x200 + 4 x250 + 4 x300 + 4 x350 + 4 x400
       + 4 x450 + 4 x500 - 5 x550 <= 0
Bounds
 0 <= x1 <= 1
 0 <= x2 <= 1
 0 <= x3 <= 1
 0 <= x4 <= 1
 0 <= x5 <= 1
 0 <= x6 <= 1
 0 <= x7 <= 1
 0 <= x8 <= 1
 0 <= x9 <= 1
 0 <= x10 <= 1
 0 <= x11 <= 1
 0 <= x12 <= 1
 0 <= x13 <= 1
 0 <= x14 <= 1
 0 <= x15 <= 1
 0 <= x16 <= 1
 0 <= x17 <= 1
 0 <= x18 <= 1
 0 <= x19 <= 1
 0 <= x20 <= 1
 0 <= x21 <= 1
 0 <= x22 <= 1
 0 <= x23 <= 1
 0 <= x24 <= 1
 0 <= x25 <= 1
 0 <= x26 <= 1
 0 <= x27 <= 1
 0 <= x28 <= 1
 0 <= x29 <= 1
 0 <= x30 <= 1
 0 <= x31 <= 1
 0 <= x32 <= 1
 0 <= x33 <= 1
 0 <= x34 <= 1
 0 <= x35 <= 1
 0 <= x36 <= 1
 0 <= x37 <= 1
 0 <= x38 <= 1
 0 <= x39 <= 1
 0 <= x40 <= 1
 0 <= x41 <= 1
 0 <= x42 <= 1
 0 <= x43 <= 1
 0 <= x44 <= 1
 0 <= x45 <= 1
 0 <= x46 <= 1
 0 <= x47 <= 1
 0 <= x48 <= 1
 0 <= x49 <= 1
 0 <= x50 <= 1
 0 <= x51 <= 1
 0 <= x52 <= 1
 0 <= x53 <= 1
 0 <= x54 <= 1
 0 <= x55 <= 1
 0 <= x56 <= 1
 0 <= x57 <= 1
 0 <= x58 <= 1
 0 <= x59 <= 1
 0 <= x60 <= 1
 0 <= x61 <= 1
 0 <= x62 <= 1
 0 <= x63 <= 1
 0 <= x64 <= 1
 0 <= x65 <= 1
 0 <= x66 <= 1
 0 <= x67 <= 1
 0 <= x68 <= 1
 0 <= x69 <= 1
 0 <= x70 <= 1
 0 <= x71 <= 1
 0 <= x72 <= 1
 0 <= x73 <= 1
 0 <= x74 <= 1
 0 <= x75 <= 1
 0 <= x76 <= 1
 0 <= x77 <= 1
 0 <= x78 <= 1
 0 <= x79 <= 1
 0 <= x80 <= 1
 0 <= x81 <= 1
 0 <= x82 <= 1
 0 <= x83 <= 1
 0 <= x84 <= 1
 0 <= x85 <= 1
 0 <= x86 <= 1
 0 <= x87 <= 1
 0 <= x88 <= 1
 0 <= x89 <= 1
 0 <= x90 <= 1
 0 <= x91 <= 1
 0 <= x92 <= 1
 0 <= x93 <= 1
 0 <= x94 <= 1
 0 <= x95 <= 1
 0 <= x96 <= 1
 0 <= x97 <= 1
 0 <= x98 <= 1
 0 <= x99 <= 1
 0 <= x100 <= 1
 0 <= x101 <= 1
 0 <= x102 <= 1
 0 <= x103 <= 1
 0 <= x104 <= 1
 0 <= x105 <= 1
 0 <= x106 <= 1
 0 <= x107 <= 1
 0 <= x108 <= 1
 0 <= x109 <= 1
 0 <= x110 <= 1
 0 <= x111 <= 1
 0 <= x112 <= 1
 0 <= x113 <= 1
 0 <= x114 <= 1
 0 <= x115 <= 1
 0 <= x116 <= 1
 0 <= x117 <= 1
 0 <= x118 <= 1
 0 <= x119 <= 1
 0 <= x120 <= 1
 0 <= x121 <= 1
 0 <= x122 <= 1
 0 <= x123 <= 1
 0 <= x124 <= 1
 0 <= x125 <= 1
 0 <= x126 <= 1
 0 <= x127 <= 1
 0 <= x128 <= 1
 0 <= x129 <= 1
 0 <= x130 <= 1
 0 <= x131 <= 1
 0 <= x132 <= 1
 0 <= x133 <= 1
 0 <= x134 <= 1
 0 <= x135 <= 1
 0 <= x136 <= 1
 0 <= x137 <= 1
 0 <= x138 <= 1
 0 <= x139 <= 1
 0 <= x140 <= 1
 0 <= x141 <= 1
 0 <= x142 <= 1
 0 <= x143 <= 1
 0 <= x144 <= 1
 0 <= x145 <= 1
 0 <= x146 <= 1
 0 <= x147 <= 1
 0 <= x148 <= 1
 0 <= x149 <= 1
 0 <= x150 <= 1
 0 <= x151 <= 1
 0 <= x152 <= 1
 0 <= x153 <= 1
 0 <= x154 <= 1
 0 <= x155 <= 1
 0 <= x156 <= 1
 0 <= x157 <= 1
 0 <= x158 <= 1
 0 <= x159 <= 1
 0 <= x160 <= 1
 0 <= x161 <= 1
 0 <= x162 <= 1
 0 <= x163 <= 1
 0 <= x164 <= 1
 0 <= x165 <= 1
 0 <= x166 <= 1
 0 <= x167 <= 1
 0 <= x168 <= 1
 0 <= x169 <= 1
 0 <= x170 <= 1
 0 <= x171 <= 1
 0 <= x172 <= 1
 0 <= x173 <= 1
 0 <= x174 <= 1
 0 <= x175 <= 1
 0 <= x176 <= 1
 0 <= x177 <= 1
 0 <= x178 <= 1
 0 <= x179 <= 1
 0 <= x180 <= 1
 0 <= x181 <= 1
 0 <= x182 <= 1
 0 <= x183 <= 1
 0 <= x184 <= 1
 0 <= x185 <= 1
 0 <= x186 <= 1
 0 <= x187 <= 1
 0 <= x188 <= 1
 0 <= x189 <= 1
 0 <= x190 <= 1
 0 <= x191 <= 1
 0 <= x192 <= 1
 0 <= x193 <= 1
 0 <= x194 <= 1
 0 <= x195 <= 1
 0 <= x196 <= 1
 0 <= x197 <= 1
 0 <= x198 <= 1
 0 <= x199 <= 1
 0 <= x200 <= 1
 0 <= x201 <= 1
 0 <= x202 <= 1
 0 <= x203 <= 1
 0 <= x204 <= 1
 0 <= x205 <= 1
 0 <= x206 <= 1
 0 <= x207 <= 1
 0 <= x208 <= 1
 0 <= x209 <= 1
 0 <= x210 <= 1
 0 <= x211 <= 1
 0 <= x212 <= 1
 0 <= x213 <= 1
 0 <= x214 <= 1
 0 <= x215 <= 1
 0 <= x216 <= 1
 0 <= x217 <= 1
 0 <= x218 <= 1
 0 <= x219 <= 1
 0 <= x220 <= 1
 0 <= x221 <= 1
 0 <= x222 <= 1
 0 <= x223 <= 1
 0 <= x224 <= 1
 0 <= x225 <= 1
 0 <= x226 <= 1
 0 <= x227 <= 1
 0 <= x228 <= 1
 0 <= x229 <= 1
 0 <= x230 <= 1
 0 <= x231 <= 1
 0 <= x232 <= 1
 0 <= x233 <= 1
 0 <= x234 <= 1
 0 <= x235 <= 1
 0 <= x236 <= 1
 0 <= x237 <= 1
 0 <= x238 <= 1
 0 <= x239 <= 1
 0 <= x240 <= 1
 0 <= x241 <= 1
 0 <= x242 <= 1
 0 <= x243 <= 1
 0 <= x244 <= 1
 0 <= x245 <= 1
 0 <= x246 <= 1
 0 <= x247 <= 1
 0 <= x248 <= 1
 0 <= x249 <= 1
 0 <= x250 <= 1
 0 <= x251 <= 1
 0 <= x252 <= 1
 0 <= x253 <= 1
 0 <= x254 <= 1
 0 <= x255 <= 1
 0 <= x256 <= 1
 0 <= x257 <= 1
 0 <= x258 <= 1
 0 <= x259 <= 1
 0 <= x260 <= 1
 0 <= x261 <= 1
 0 <= x262 <= 1
 0 <= x263 <= 1
 0 <= x264 <= 1
 0 <= x265 <= 1
 0 <= x266 <= 1
 0 <= x267 <= 1
 0 <= x268 <= 1
 0 <= x269 <= 1
 0 <= x270 <= 1
 0 <= x271 <= 1
 0 <= x272 <= 1
 0 <= x273 <= 1
 0 <= x274 <= 1
 0 <= x275 <= 1
 0 <= x276 <= 1
 0 <= x277 <= 1
 0 <= x278 <= 1
 0 <= x279 <= 1
 0 <= x280 <= 1
 0 <= x281 <= 1
 0 <= x282 <= 1
 0 <= x283 <= 1
 0 <= x284 <= 1
 0 <= x285 <= 1
 0 <= x286 <= 1
 0 <= x287 <= 1
 0 <= x288 <= 1
 0 <= x289 <= 1
 0 <= x290 <= 1
 0 <= x291 <= 1
 0 <= x292 <= 1
 0 <= x293 <= 1
 0 <= x294 <= 1
 0 <= x295 <= 1
 0 <= x296 <= 1
 0 <= x297 <= 1
 0 <= x298 <= 1
 0 <= x299 <= 1
 0 <= x300 <= 1
 0 <= x301 <= 1
 0 <= x302 <= 1
 0 <= x303 <= 1
 0 <= x304 <= 1
 0 <= x305 <= 1
 0 <= x306 <= 1
 0 <= x307 <= 1
 0 <= x308 <= 1
 0 <= x309 <= 1
 0 <= x310 <= 1
 0 <= x311 <= 1
 0 <= x312 <= 1
 0 <= x313 <= 1
 0 <= x314 <= 1
 0 <= x315 <= 1
 0 <= x316 <= 1
 0 <= x317 <= 1
 0 <= x318 <= 1
 0 <= x319 <= 1
 0 <= x320 <= 1
 0 <= x321 <= 1
 0 <= x322 <= 1
 0 <= x323 <= 1
 0 <= x324 <= 1
 0 <= x325 <= 1
 0 <= x326 <= 1
 0 <= x327 <= 1
 0 <= x328 <= 1
 0 <= x329 <= 1
 0 <= x330 <= 1
 0 <= x331 <= 1
 0 <= x332 <= 1
 0 <= x333 <= 1
 0 <= x334 <= 1
 0 <= x335 <= 1
 0 <= x336 <= 1
 0 <= x337 <= 1
 0 <= x338 <= 1
 0 <= x339 <= 1
 0 <= x340 <= 1
 0 <= x341 <= 1
 0 <= x342 <= 1
 0 <= x343 <= 1
 0 <= x344 <= 1
 0 <= x345 <= 1
 0 <= x346 <= 1
 0 <= x347 <= 1
 0 <= x348 <= 1
 0 <= x349 <= 1
 0 <= x350 <= 1
 0 <= x351 <= 1
 0 <= x352 <= 1
 0 <= x353 <= 1
 0 <= x354 <= 1
 0 <= x355 <= 1
 0 <= x356 <= 1
 0 <= x357 <= 1
 0 <= x358 <= 1
 0 <= x359 <= 1
 0 <= x360 <= 1
 0 <= x361 <= 1
 0 <= x362 <= 1
 0 <= x363 <= 1
 0 <= x364 <= 1
 0 <= x365 <= 1
 0 <= x366 <= 1
 0 <= x367 <= 1
 0 <= x368 <= 1
 0 <= x369 <= 1
 0 <= x370 <= 1
 0 <= x371 <= 1
 0 <= x372 <= 1
 0 <= x373 <= 1
 0 <= x374 <= 1
 0 <= x375 <= 1
 0 <= x376 <= 1
 0 <= x377 <= 1
 0 <= x378 <= 1
 0 <= x379 <= 1
 0 <= x380 <= 1
 0 <= x381 <= 1
 0 <= x382 <= 1
 0 <= x383 <= 1
 0 <= x384 <= 1
 0 <= x385 <= 1
 0 <= x386 <= 1
 0 <= x387 <= 1
 0 <= x388 <= 1
 0 <= x389 <= 1
 0 <= x390 <= 1
 0 <= x391 <= 1
 0 <= x392 <= 1
 0 <= x393 <= 1
 0 <= x394 <= 1
 0 <= x395 <= 1
 0 <= x396 <= 1
 0 <= x397 <= 1
 0 <= x398 <= 1
 0 <= x399 <= 1
 0 <= x400 <= 1
 0 <= x401 <= 1
 0 <= x402 <= 1
 0 <= x403 <= 1
 0 <= x404 <= 1
 0 <= x405 <= 1
 0 <= x406 <= 1
 0 <= x407 <= 1
 0 <= x408 <= 1
 0 <= x409 <= 1
 0 <= x410 <= 1
 0 <= x411 <= 1
 0 <= x412 <= 1
 0 <= x413 <= 1
 0 <= x414 <= 1
 0 <= x415 <= 1
 0 <= x416 <= 1
 0 <= x417 <= 1
 0 <= x418 <= 1
 0 <= x419 <= 1
 0 <= x420 <= 1
 0 <= x421 <= 1
 0 <= x422 <= 1
 0 <= x423 <= 1
 0 <= x424 <= 1
 0 <= x425 <= 1
 0 <= x426 <= 1
 0 <= x427 <= 1
 0 <= x428 <= 1
 0 <= x429 <= 1
 0 <= x430 <= 1
 0 <= x431 <= 1
 0 <= x432 <= 1
 0 <= x433 <= 1
 0 <= x434 <= 1
 0 <= x435 <= 1
 0 <= x436 <= 1
 0 <= x437 <= 1
 0 <= x438 <= 1
 0 <= x439 <= 1
 0 <= x440 <= 1
 0 <= x441 <= 1
 0 <= x442 <= 1
 0 <= x443 <= 1
 0 <= x444 <= 1
 0 <= x445 <= 1
 0 <= x446 <= 1
 0 <= x447 <= 1
 0 <= x448 <= 1
 0 <= x449 <= 1
 0 <= x450 <= 1
 0 <= x451 <= 1
 0 <= x452 <= 1
 0 <= x453 <= 1
 0 <= x454 <= 1
 0 <= x455 <= 1
 0 <= x456 <= 1
 0 <= x457 <= 1
 0 <= x458 <= 1
 0 <= x459 <= 1
 0 <= x460 <= 1
 0 <= x461 <= 1
 0 <= x462 <= 1
 0 <= x463 <= 1
 0 <= x464 <= 1
 0 <= x465 <= 1
 0 <= x466 <= 1
 0 <= x467 <= 1
 0 <= x468 <= 1
 0 <= x469 <= 1
 0 <= x470 <= 1
 0 <= x471 <= 1
 0 <= x472 <= 1
 0 <= x473 <= 1
 0 <= x474 <= 1
 0 <= x475 <= 1
 0 <= x476 <= 1
 0 <= x477 <= 1
 0 <= x478 <= 1
 0 <= x479 <= 1
 0 <= x480 <= 1
 0 <= x481 <= 1
 0 <= x482 <= 1
 0 <= x483 <= 1
 0 <= x484 <= 1
 0 <= x485 <= 1
 0 <= x486 <= 1
 0 <= x487 <= 1
 0 <= x488 <= 1
 0 <= x489 <= 1
 0 <= x490 <= 1
 0 <= x491 <= 1
 0 <= x492 <= 1
 0 <= x493 <= 1
 0 <= x494 <= 1
 0 <= x495 <= 1
 0 <= x496 <= 1
 0 <= x497 <= 1
 0 <= x498 <= 1
 0 <= x499 <= 1
 0 <= x500 <= 1
 0 <= x501 <= 1
 0 <= x502 <= 1
 0 <= x503 <= 1
 0 <= x504 <= 1
 0 <= x505 <= 1
 0 <= x506 <= 1
 0 <= x507 <= 1
 0 <= x508 <= 1
 0 <= x509 <= 1
 0 <= x510 <= 1
 0 <= x511 <= 1
 0 <= x512 <= 1
 0 <= x513 <= 1
 0 <= x514 <= 1
 0 <= x515 <= 1
 0 <= x516 <= 1
 0 <= x517 <= 1
 0 <= x518 <= 1
 0 <= x519 <= 1
 0 <= x520 <= 1
 0 <= x521 <= 1
 0 <= x522 <= 1
 0 <= x523 <= 1
 0 <= x524 <= 1
 0 <= x525 <= 1
 0 <= x526 <= 1
 0 <= x527 <= 1
 0 <= x528 <= 1
 0 <= x529 <= 1
 0 <= x530 <= 1
 0 <= x531 <= 1
 0 <= x532 <= 1
 0 <= x533 <= 1
 0 <= x534 <= 1
 0 <= x535 <= 1
 0 <= x536 <= 1
 0 <= x537 <= 1
 0 <= x538 <= 1
 0 <= x539 <= 1
 0 <= x540 <= 1
 0 <= x541 <= 1
 0 <= x542 <= 1
 0 <= x543 <= 1
 0 <= x544 <= 1
 0 <= x545 <= 1
 0 <= x546 <= 1
 0 <= x547 <= 1
 0 <= x548 <= 1
 0 <= x549 <= 1
 0 <= x550 <= 1
Binaries
 x501  x502  x503  x504  x505  x506  x507  x508  x509  x510  x511  x512  x513 
 x514  x515  x516  x517  x518  x519  x520  x521  x522  x523  x524  x525  x526 
 x527  x528  x529  x530  x531  x532  x533  x534  x535  x536  x537  x538  x539 
 x540  x541  x542  x543  x544  x545  x546  x547  x548  x549  x550 
End
